Problem:    soluzione
Rows:       22
Columns:    13
Non-zeros:  67
Status:     OPTIMAL
Objective:  z = 0.9980558229 (MINimum)

   No.   Row name   St   Activity     Lower bound   Upper bound    Marginal
------ ------------ -- ------------- ------------- ------------- -------------
     1 DichiarazioneValoriOttenuti[1]
                    NS          3.45          3.45             =     -0.642926 
     2 DichiarazioneValoriOttenuti[2]
                    NS          1800          1800             =   -0.00103561 
     3 DichiarazioneValoriOttenuti[3]
                    NS          0.05          0.05             =      0.567854 
     4 DichiarazioneValoriOttenuti[4]
                    NS          3200          3200             =         < eps
     5 DichiarazioneValoriOttenuti[5]
                    NS          26.4          26.4             =    -0.0565929 
     6 DichiarazioneValoriOttenuti[6]
                    NS            35            35             =         < eps
     7 DichiarazioneValoriOttenuti[7]
                    NS           136           136             =     0.0179018 
     8 z            B       0.998056                             
     9 VincoloMINMAX1[1]
                    B       -1.33528            -4               
    10 VincoloMINMAX1[2]
                    B      -0.701944          -2.5               
    11 VincoloMINMAX1[3]
                    NL          -1.6          -1.6                    0.283927 
    12 VincoloMINMAX1[4]
                    B       -1.71278      -2.66667               
    13 VincoloMINMAX1[5]
                    B       -3.00194            -5               
    14 VincoloMINMAX1[6]
                    B       -4.09184      -5.83333               
    15 VincoloMINMAX1[7]
                    B             -3            -3               
    16 VincoloMINMAX2[1]
                    B       -1.33528            -4               
    17 VincoloMINMAX2[2]
                    B      -0.701944          -2.5               
    18 VincoloMINMAX2[3]
                    B           -1.6          -1.6               
    19 VincoloMINMAX2[4]
                    B       -1.71278      -2.66667               
    20 VincoloMINMAX2[5]
                    B       -3.00194            -5               
    21 VincoloMINMAX2[6]
                    B       -4.09184      -5.83333               
    22 VincoloMINMAX2[7]
                    NL            -3            -3                    0.716073 

   No. Column name  St   Activity     Lower bound   Upper bound    Marginal
------ ------------ -- ------------- ------------- ------------- -------------
     1 Somministrazione[A]
                    NL             0             0             2       1.15149 
     2 Somministrazione[B]
                    B        3.48094             0           3.5 
     3 Somministrazione[C]
                    B       0.458229             0           0.5 
     4 Somministrazione[D]
                    B       0.291145             0           0.5 
     5 Somministrazione[E]
                    B        7.29827             0           7.5 
     6 ValoreOttenuto[1]
                    NL             7             7            15      0.642926 
     7 ValoreOttenuto[2]
                    NL          1700          1700          3500    0.00103561 
     8 ValoreOttenuto[3]
                    B        1.29903           0.5           1.3 
     9 ValoreOttenuto[4]
                    B        2033.13          1400          2750 
    10 ValoreOttenuto[5]
                    NL             8             8            12     0.0565929 
    11 ValoreOttenuto[6]
                    B        30.5394            28            41 
    12 ValoreOttenuto[7]
                    B        159.922            80           160 
    13 MINMAX       B       0.998056                             

Karush-Kuhn-Tucker optimality conditions:

KKT.PE: max.abs.err = 2.27e-013 on row 2
        max.rel.err = 1.81e-016 on row 6
        High quality

KKT.PB: max.abs.err = 8.88e-016 on row 15
        max.rel.err = 2.22e-016 on row 15
        High quality

KKT.DE: max.abs.err = 1.11e-016 on column 2
        max.rel.err = 6.19e-017 on column 2
        High quality

KKT.DB: max.abs.err = 0.00e+000 on row 0
        max.rel.err = 0.00e+000 on row 0
        High quality

End of output
